c read Graph
c width = 7
c time = 19 ms
c width = 1
c time = 40 ms
c width = 1
c time = 4920 ms
s td 372 2 460
b 1 1
b 2 357 358
b 3 2 357
b 4 255 256
b 5 3 255
b 6 3 227
b 7 4
b 8 5 329
b 9 181 182
b 10 6 181
b 11 7
b 12 8 447
b 13 9
b 14 10
b 15 11 456
b 16 11 161
b 17 12
b 18 13 340
b 19 14 131
b 20 14 248
b 21 15
b 22 221 222
b 23 16 221
b 24 347 348
b 25 16 347
b 26 17
b 27 18 116
b 28 19
b 29 20
b 30 21 332
b 31 21 137
b 32 22 118
b 33 23
b 34 24 128
b 35 25 322
b 36 349 350
b 37 26 349
b 38 26 240
b 39 239 240
b 40 25 239
b 41 27 233
b 42 28
b 43 29
b 44 30 136
b 45 30 197
b 46 271 272
b 47 31 271
b 48 42 360
b 49 193 194
b 50 42 193
b 51 42 266
b 52 265 266
b 53 32 265
b 54 33
b 55 34 333
b 56 36 426
b 57 425 426
b 58 35 425
b 59 37
b 60 38
b 61 39 111
b 62 39 224
b 63 40 198
b 64 40 157
b 65 41 278
b 66 43
b 67 44 334
b 68 209 210
b 69 45 210
b 70 441 442
b 71 46 442
b 72 183 184
b 73 47 184
b 74 47 259
b 75 48 291
b 76 49 102
b 77 49 147
b 78 50 158
b 79 51
b 80 52 444
b 81 53 175
b 82 54
b 83 55
b 84 56 167
b 85 435 436
b 86 56 436
b 87 57 367
b 88 57 352
b 89 58
b 90 59 371
b 91 60 204
b 92 60 354
b 93 61 297
b 94 61 356
b 95 317 318
b 96 62 318
b 97 63
b 98 64 149
b 99 64 212
b 100 395 396
b 101 64 396
b 102 385 386
b 103 65 386
b 104 65 205
b 105 66 245
b 106 67 267
b 107 335 336
b 108 67 336
b 109 68 326
b 110 68 434
b 111 69 286
b 112 285 286
b 113 68 285
b 114 70 200
b 115 70 405
b 116 71
b 117 409 410
b 118 72 409
b 119 73 104
b 120 165 166
b 121 73 165
b 122 73 201
b 123 287 288
b 124 74 287
b 125 75 261
b 126 76 130
b 127 253 254
b 128 76 254
b 129 78 214
b 130 213 214
b 131 77 213
b 132 77 268
b 133 407 408
b 134 79 408
b 135 145 146
b 136 79 145
b 137 80
b 138 327 328
b 139 81 327
b 140 82
b 141 83 281
b 142 445 446
b 143 83 445
b 144 121 122
b 145 84 122
b 146 94 185
b 147 94 126
b 148 125 126
b 149 84 125
b 150 379 380
b 151 86 379
b 152 86 304
b 153 303 304
b 154 85 303
b 155 87 412
b 156 87 345
b 157 87 208
b 158 88 414
b 159 88 264
b 160 415 416
b 161 89 416
b 162 89 293
b 163 90 178
b 164 100 362
b 165 100 424
b 166 423 424
b 167 90 423
b 168 91
b 169 92 308
b 170 289 290
b 171 93 290
b 172 95 151
b 173 95 422
b 174 98 196
b 175 195 196
b 176 97 195
b 177 97 346
b 178 97 144
b 179 143 144
b 180 96 143
b 181 417 418
b 182 99 418
b 183 101
b 184 103
b 185 105
b 186 106
b 187 107
b 188 108
b 189 109
b 190 110
b 191 112
b 192 113
b 193 114
b 194 115
b 195 117
b 196 119 120
b 197 123
b 198 124
b 199 127
b 200 129
b 201 132
b 202 133
b 203 134
b 204 135
b 205 138
b 206 139 140
b 207 141
b 208 142
b 209 148
b 210 150
b 211 152
b 212 153 154
b 213 155 156
b 214 159 160
b 215 162
b 216 163
b 217 164
b 218 168
b 219 169
b 220 170
b 221 171
b 222 172
b 223 173 174
b 224 176
b 225 177
b 226 179
b 227 180
b 228 186
b 229 187
b 230 188
b 231 189 190
b 232 191 192
b 233 199
b 234 202
b 235 203
b 236 206
b 237 207
b 238 211
b 239 215
b 240 216
b 241 217 218
b 242 219 220
b 243 223
b 244 225
b 245 226
b 246 228
b 247 229
b 248 230
b 249 231
b 250 232
b 251 234
b 252 235
b 253 236
b 254 237
b 255 238
b 256 241
b 257 242
b 258 243
b 259 244
b 260 246
b 261 247
b 262 249
b 263 250
b 264 251 252
b 265 257
b 266 258
b 267 260
b 268 262
b 269 263
b 270 269 270
b 271 273
b 272 274
b 273 275
b 274 276
b 275 277
b 276 279
b 277 280
b 278 282
b 279 283
b 280 284
b 281 292
b 282 294
b 283 295 296
b 284 298
b 285 299
b 286 300
b 287 301
b 288 302
b 289 305 306
b 290 307
b 291 309 310
b 292 311
b 293 312
b 294 313
b 295 314
b 296 315
b 297 316
b 298 319
b 299 320
b 300 321
b 301 323
b 302 324
b 303 325
b 304 330
b 305 331
b 306 337
b 307 338
b 308 339
b 309 341 342
b 310 343
b 311 344
b 312 351
b 313 353
b 314 355
b 315 359
b 316 361
b 317 363
b 318 364
b 319 365
b 320 366
b 321 368
b 322 369
b 323 370
b 324 372
b 325 373 374
b 326 375
b 327 376
b 328 377
b 329 378
b 330 381
b 331 382
b 332 383 384
b 333 387
b 334 388
b 335 389
b 336 390
b 337 391
b 338 392
b 339 393
b 340 394
b 341 397 398
b 342 399
b 343 400
b 344 401 402
b 345 403
b 346 404
b 347 406
b 348 411
b 349 413
b 350 419 420
b 351 421
b 352 427
b 353 428
b 354 429 430
b 355 431
b 356 432
b 357 433
b 358 437
b 359 438
b 360 439
b 361 440
b 362 443
b 363 448
b 364 449
b 365 450
b 366 451
b 367 452
b 368 453 454
b 369 455
b 370 457
b 371 458
b 372 459 460
1 2
1 4
1 7
1 8
1 9
1 11
1 12
1 13
1 14
1 15
1 17
1 18
1 19
1 21
1 22
1 26
1 27
1 28
1 29
1 30
1 32
1 33
1 34
1 35
1 41
1 42
1 43
1 44
1 46
1 48
1 54
1 55
1 56
1 59
1 60
1 61
1 63
1 65
1 66
1 67
1 68
1 70
1 72
1 75
1 76
1 78
1 79
1 80
1 81
1 82
1 83
1 84
1 87
1 89
1 90
1 91
1 93
1 95
1 97
1 98
1 102
1 105
1 106
1 109
1 114
1 116
1 117
1 119
1 123
1 125
1 126
1 129
1 133
1 137
1 138
1 140
1 141
1 144
1 150
1 155
1 158
1 160
1 163
1 168
1 169
1 170
1 172
1 174
1 181
1 183
1 184
1 185
1 186
1 187
1 188
1 189
1 190
1 191
1 192
1 193
1 194
1 195
1 196
1 197
1 198
1 199
1 200
1 201
1 202
1 203
1 204
1 205
1 206
1 207
1 208
1 209
1 210
1 211
1 212
1 213
1 214
1 215
1 216
1 217
1 218
1 219
1 220
1 221
1 222
1 223
1 224
1 225
1 226
1 227
1 228
1 229
1 230
1 231
1 232
1 233
1 234
1 235
1 236
1 237
1 238
1 239
1 240
1 241
1 242
1 243
1 244
1 245
1 246
1 247
1 248
1 249
1 250
1 251
1 252
1 253
1 254
1 255
1 256
1 257
1 258
1 259
1 260
1 261
1 262
1 263
1 264
1 265
1 266
1 267
1 268
1 269
1 270
1 271
1 272
1 273
1 274
1 275
1 276
1 277
1 278
1 279
1 280
1 281
1 282
1 283
1 284
1 285
1 286
1 287
1 288
1 289
1 290
1 291
1 292
1 293
1 294
1 295
1 296
1 297
1 298
1 299
1 300
1 301
1 302
1 303
1 304
1 305
1 306
1 307
1 308
1 309
1 310
1 311
1 312
1 313
1 314
1 315
1 316
1 317
1 318
1 319
1 320
1 321
1 322
1 323
1 324
1 325
1 326
1 327
1 328
1 329
1 330
1 331
1 332
1 333
1 334
1 335
1 336
1 337
1 338
1 339
1 340
1 341
1 342
1 343
1 344
1 345
1 346
1 347
1 348
1 349
1 350
1 351
1 352
1 353
1 354
1 355
1 356
1 357
1 358
1 359
1 360
1 361
1 362
1 363
1 364
1 365
1 366
1 367
1 368
1 369
1 370
1 371
1 372
2 3
4 5
5 6
9 10
15 16
19 20
22 23
23 25
24 25
30 31
35 40
36 37
37 38
38 39
39 40
44 45
46 47
48 50
48 51
49 50
51 52
52 53
56 57
57 58
61 62
63 64
68 69
70 71
72 73
73 74
76 77
84 86
85 86
87 88
91 92
93 94
95 96
98 99
98 101
100 101
102 103
103 104
106 108
107 108
109 110
109 113
111 112
112 113
114 115
117 118
119 121
119 122
120 121
123 124
126 128
127 128
129 130
130 131
131 132
133 134
134 136
135 136
138 139
141 143
142 143
144 145
145 149
146 147
147 148
148 149
150 151
151 152
152 153
153 154
155 156
155 157
158 159
160 161
161 162
163 167
164 165
165 166
166 167
170 171
172 173
174 175
175 176
176 177
176 178
178 179
179 180
181 182
